Traveling Salesman Problem/TSP_generados/Aleatorio1621103924_18.tsp
NAME: Aleatorio1621103924_18.tsp
COMMENT: Randomly generated scenario
TYPE: TSP
DIMENSION: 18
EDGE_WEIGHT_TYPE: ATT
NODE_COORD_SECTION
1 36.41 0.7
2 15.81 38.83
3 45.97 40.48
4 26.32 23.38
5 43.39 19.32
6 9.61 37.13
7 20.85 6.99
8 36.19 16.78
9 48.84 4.43
10 34.22 4.51
11 23.17 8.07
12 44.53 27.52
13 6.15 41.81
14 27.66 48.57
15 39.58 39.4
16 44.23 27.16
17 6.23 8.38
18 46.89 7.84
