Traveling Salesman Problem/TSP_generados/Aleatorio1621103924_18.opt.tour
NAME: Aleatorio1621103924_18.opt.tour
COMMENT: Optimal solution for Aleatorio1621103924_18 (192.6262472687325)
TYPE: TOUR
DIMENSION: 18
TOUR_SECTION
1 9 18 8 5 16 12 3 15 14 2 13 6 4 17 7 11 10
-1
EOF
